decision_x1=[0,4];
decision_x2=[0,4];
decision_x3=[0,4];
decision_x4=[0,4];
decision_x5=[0,4];
decision_x6=[0,4];
decision_x7=[0,4];
decision_x8=[0,4];
decision_x9=[0,4];
decision_x10=[0,4];
random_y1=[0,4];
random_y2=[0,4];
constraint_x3_x2=[
0,1,5.9|
0,2,2.9|
0,3,0.38|
0,4,1.9|
1,0,9.4|
1,2,0.49|
1,3,8.5|
1,4,1.9|
2,0,2.3|
2,1,4.1|
2,3,3.3|
2,4,0.94|
3,0,5.7|
3,1,0.34|
3,2,8.7|
3,4,8.1|
4,0,1.5|
4,1,1.6|
4,2,6.8|
4,3,4.1|
];
constraint_x4_x1=[
0,1,3.5|
0,2,7.1|
0,3,2.7|
0,4,7|
1,0,3.5|
1,2,7.5|
1,3,5.2|
1,4,1|
2,0,0.68|
2,1,9.1|
2,3,7.4|
2,4,8.4|
3,0,9.4|
3,1,7.5|
3,2,2.5|
3,4,6.1|
4,0,4.8|
4,1,3.7|
4,2,2.3|
4,3,3.5|
];
constraint_x5_x1=[
0,1,8.9|
0,2,5.8|
0,3,8.8|
0,4,4.4|
1,0,1.9|
1,2,9.7|
1,3,6|
1,4,2.7|
2,0,10|
2,1,0.075|
2,3,2|
2,4,3.9|
3,0,0.8|
3,1,3.1|
3,2,6.3|
3,4,7.6|
4,0,9.5|
4,1,6.4|
4,2,1.8|
4,3,2.9|
];
constraint_x5_x2=[
0,1,9.8|
0,2,1.9|
0,3,3.1|
0,4,8.9|
1,0,9.6|
1,2,5.1|
1,3,7.5|
1,4,3.7|
2,0,6.4|
2,1,7.1|
2,3,4.2|
2,4,6.3|
3,0,7|
3,1,3.3|
3,2,0.46|
3,4,1.5|
4,0,0.25|
4,1,8.6|
4,2,8.9|
4,3,3.9|
];
constraint_x5_x3=[
0,1,2.2|
0,2,9.6|
0,3,8.1|
0,4,9.3|
1,0,1.8|
1,2,2.1|
1,3,3.1|
1,4,7.3|
2,0,1.4|
2,1,8.4|
2,3,5.5|
2,4,6.9|
3,0,4|
3,1,2.6|
3,2,3.2|
3,4,9.9|
4,0,7.2|
4,1,5|
4,2,5.4|
4,3,9.3|
];
constraint_x5_x4=[
0,1,3.7|
0,2,9.5|
0,3,9.1|
0,4,7.5|
1,0,8.3|
1,2,3.3|
1,3,4.7|
1,4,9.3|
2,0,4|
2,1,0.93|
2,3,7.8|
2,4,5.2|
3,0,2.8|
3,1,0.32|
3,2,8.3|
3,4,6.5|
4,0,7.4|
4,1,4.2|
4,2,1.2|
4,3,5.2|
];
constraint_x6_x2=[
0,1,0.86|
0,2,2.3|
0,3,5.8|
0,4,4.9|
1,0,0.28|
1,2,8.5|
1,3,8.9|
1,4,6.4|
2,0,2.5|
2,1,1.9|
2,3,8.1|
2,4,1.9|
3,0,0.26|
3,1,4.6|
3,2,7.5|
3,4,8.8|
4,0,0.68|
4,1,2.1|
4,2,8.1|
4,3,6.6|
];
constraint_x6_x4=[
0,1,7.7|
0,2,3.6|
0,3,9.8|
0,4,0.54|
1,0,6.5|
1,2,9.7|
1,3,6.3|
1,4,4.3|
2,0,4.4|
2,1,2.2|
2,3,7.4|
2,4,6.6|
3,0,0.15|
3,1,9.4|
3,2,1|
3,4,1.4|
4,0,0.27|
4,1,8.7|
4,2,10|
4,3,0.74|
];
constraint_x7_x2=[
0,1,10|
0,2,6.5|
0,3,7.3|
0,4,2.7|
1,0,8.4|
1,2,5.5|
1,3,4.5|
1,4,3.2|
2,0,5.4|
2,1,4.9|
2,3,8.9|
2,4,0.2|
3,0,2.6|
3,1,1.5|
3,2,0.89|
3,4,5.6|
4,0,8.4|
4,1,1.9|
4,2,1.9|
4,3,0.064|
];
constraint_x7_x3=[
0,1,2.4|
0,2,4|
0,3,7.3|
0,4,5.7|
1,0,9.9|
1,2,3.3|
1,3,1.4|
1,4,8.2|
2,0,2.1|
2,1,0.41|
2,3,1.4|
2,4,7.2|
3,0,1.5|
3,1,4.6|
3,2,9.7|
3,4,2.8|
4,0,9.9|
4,1,0.44|
4,2,1.8|
4,3,4.2|
];
constraint_x7_x6=[
0,1,6.6|
0,2,1.4|
0,3,4.9|
0,4,3.4|
1,0,3|
1,2,8.5|
1,3,8.9|
1,4,4.1|
2,0,6.7|
2,1,5.7|
2,3,6.8|
2,4,8.8|
3,0,7.1|
3,1,3.8|
3,2,1.7|
3,4,5.2|
4,0,9.3|
4,1,6.3|
4,2,5.5|
4,3,9.2|
];
constraint_x8_x1=[
0,1,7.5|
0,2,4.8|
0,3,2.5|
0,4,8|
1,0,9.8|
1,2,2.5|
1,3,1.1|
1,4,5.2|
2,0,8.7|
2,1,6.3|
2,3,8.8|
2,4,6.1|
3,0,0.22|
3,1,5.6|
3,2,9.9|
3,4,8.8|
4,0,3.9|
4,1,3.7|
4,2,2.4|
4,3,9.9|
];
constraint_x8_x4=[
0,1,2.4|
0,2,9.9|
0,3,10|
0,4,4.7|
1,0,3.2|
1,2,6.9|
1,3,1.4|
1,4,7.4|
2,0,4.3|
2,1,5.8|
2,3,5.5|
2,4,7|
3,0,4.3|
3,1,6.5|
3,2,1|
3,4,5.7|
4,0,7.8|
4,1,6|
4,2,4.4|
4,3,2.6|
];
constraint_x8_x5=[
0,1,2.7|
0,2,1.1|
0,3,3.1|
0,4,0.82|
1,0,1.2|
1,2,1.6|
1,3,6.7|
1,4,2|
2,0,3.1|
2,1,3.1|
2,3,1.4|
2,4,9.4|
3,0,4.5|
3,1,2.2|
3,2,7.2|
3,4,1.4|
4,0,1.9|
4,1,5.3|
4,2,4.8|
4,3,4.6|
];
constraint_x9_x1=[
0,1,2.4|
0,2,1.3|
0,3,2.3|
0,4,9.7|
1,0,2.6|
1,2,8.5|
1,3,1.4|
1,4,0.73|
2,0,9|
2,1,1.8|
2,3,3.6|
2,4,1.9|
3,0,7.3|
3,1,1.6|
3,2,4.4|
3,4,0.11|
4,0,5.6|
4,1,3.2|
4,2,9.3|
4,3,1.6|
];
constraint_x9_x2=[
0,1,3.3|
0,2,5.7|
0,3,3.3|
0,4,7|
1,0,3.4|
1,2,0.47|
1,3,7.8|
1,4,0.18|
2,0,6.4|
2,1,4.8|
2,3,2.3|
2,4,5.8|
3,0,5.4|
3,1,9.9|
3,2,7.7|
3,4,0.95|
4,0,9.1|
4,1,9.9|
4,2,6|
4,3,1.8|
];
constraint_x9_x3=[
0,1,0.88|
0,2,2.4|
0,3,3.4|
0,4,2.5|
1,0,5.8|
1,2,4.9|
1,3,1.2|
1,4,8.1|
2,0,1.1|
2,1,9|
2,3,7.5|
2,4,6.5|
3,0,2.1|
3,1,8.8|
3,2,4|
3,4,2.3|
4,0,4|
4,1,2.1|
4,2,4.1|
4,3,2.2|
];
constraint_x9_x4=[
0,1,4.2|
0,2,9.3|
0,3,0.3|
0,4,1.6|
1,0,5.3|
1,2,1.7|
1,3,1.4|
1,4,1.1|
2,0,8.7|
2,1,1|
2,3,9.8|
2,4,5.2|
3,0,8.7|
3,1,0.89|
3,2,3.6|
3,4,0.39|
4,0,7.9|
4,1,1.3|
4,2,2.4|
4,3,3.8|
];
constraint_x9_x5=[
0,1,4.3|
0,2,5|
0,3,0.62|
0,4,5.6|
1,0,7.9|
1,2,9.9|
1,3,7.3|
1,4,2|
2,0,8.7|
2,1,3.2|
2,3,8.5|
2,4,6.8|
3,0,2|
3,1,8.9|
3,2,8.7|
3,4,2.2|
4,0,9.4|
4,1,2.6|
4,2,7.4|
4,3,5.4|
];
constraint_x9_x6=[
0,1,3.3|
0,2,0.09|
0,3,0.39|
0,4,3.9|
1,0,6.9|
1,2,2.2|
1,3,3.9|
1,4,9.5|
2,0,6.4|
2,1,1.3|
2,3,1.3|
2,4,5.3|
3,0,7.2|
3,1,1.8|
3,2,4.3|
3,4,7.4|
4,0,9.7|
4,1,4.6|
4,2,3.1|
4,3,5.3|
];
constraint_x9_x8=[
0,1,1.4|
0,2,5.9|
0,3,6|
0,4,6|
1,0,0.089|
1,2,4|
1,3,6.6|
1,4,3|
2,0,7.5|
2,1,4.4|
2,3,6.5|
2,4,8.5|
3,0,0.69|
3,1,4.9|
3,2,1.6|
3,4,5.1|
4,0,4.7|
4,1,3.4|
4,2,6.8|
4,3,4.5|
];
constraint_x10_x5=[
0,1,9|
0,2,9.5|
0,3,9|
0,4,2.9|
1,0,0.41|
1,2,2.2|
1,3,4.7|
1,4,4.3|
2,0,7.8|
2,1,2.6|
2,3,7.7|
2,4,3.8|
3,0,2.2|
3,1,2.1|
3,2,1.9|
3,4,2|
4,0,9.3|
4,1,1.1|
4,2,3.6|
4,3,3.4|
];
constraint_x10_x9=[
0,1,8.2|
0,2,3.5|
0,3,0.44|
0,4,6.6|
1,0,1.3|
1,2,2.9|
1,3,7.7|
1,4,0.61|
2,0,9.6|
2,1,6.7|
2,3,2.9|
2,4,8|
3,0,2.6|
3,1,3.6|
3,2,8.4|
3,4,2.7|
4,0,1.7|
4,1,8.6|
4,2,9.7|
4,3,4.9|
];
constraint_x1_y1=[
0,0,1.6|
0,1,9.4|
0,2,0.4|
0,3,4.9|
0,4,2.5|
1,0,1.9|
1,1,10|
1,2,7.6|
1,3,6.4|
1,4,9|
2,0,8.3|
2,1,0.8|
2,2,6|
2,3,8.4|
2,4,2.4|
3,0,3.1|
3,1,0.46|
3,2,5.5|
3,3,5|
3,4,3.5|
4,0,2.7|
4,1,2.1|
4,2,6.6|
4,3,8.2|
4,4,8.7|
];
constraint_x2_y2=[
0,0,3.5|
0,1,2.9|
0,2,8.8|
0,3,3|
0,4,4.8|
1,0,8.8|
1,1,1.4|
1,2,6|
1,3,4.7|
1,4,5.9|
2,0,5.2|
2,1,8.5|
2,2,3.3|
2,3,8.9|
2,4,0.78|
3,0,7.3|
3,1,8.8|
3,2,7.7|
3,3,5.9|
3,4,9.6|
4,0,7.2|
4,1,8.8|
4,2,0.77|
4,3,6.5|
4,4,9.1|
];
initial_distribution_y1=[0.14,0.1,0.3,0.31,0.15];
initial_distribution_y2=[0.25,0.25,0.18,0.2,0.13];
transition_y1=[
0.3,0.17,0.015,0.2,0.31|
0.26,0.056,0.0097,0.39,0.29|
0.096,0.37,0.42,0.077,0.039|
0.035,0.024,0.36,0.078,0.5|
0.44,0.31,0.034,0.079,0.13|
];
transition_y2=[
0.24,0.26,0.035,0.29,0.18|
0.11,0.16,0.062,0.3,0.37|
0.21,0.078,0.21,0.22,0.28|
0.039,0.33,0.37,0.1,0.15|
0.26,0.27,0.12,0.18,0.17|
];
